0000000000000000
0111110000011100
0011111000111100
0011111000111100
0001111100111100
0000111110111100
0001111111111100
0011111111111000
0011111111110000
0111111111100000
0111100111110000
0111100011111000
0111100001111100
0111100001111100
0111100000111110
0111100000011110
